src/ARITHMETIC/ACCUMULATOR/acc_prove/model/design_smt2.smt2
; SMT-LIBv2 description generated by Yosys 0.9+1706 (git sha1 2e8d6ec0b0, g++ 9.2.0 -fPIC -Os)
; yosys-smt2-module accumulator
(declare-sort |accumulator_s| 0)
(declare-fun |accumulator_is| (|accumulator_s|) Bool)
; yosys-smt2-register r_PAST_VALID 1
; yosys-smt2-wire r_PAST_VALID 1
(declare-fun |accumulator#0| (|accumulator_s|) (_ BitVec 1)) ; \r_PAST_VALID
(define-fun |accumulator_n r_PAST_VALID| ((state |accumulator_s|)) Bool (= ((_ extract 0 0) (|accumulator#0| state)) #b1))
; yosys-smt2-output o_ACCUMULATION 8
; yosys-smt2-register o_ACCUMULATION 8
; yosys-smt2-wire o_ACCUMULATION 8
(declare-fun |accumulator#1| (|accumulator_s|) (_ BitVec 8)) ; \o_ACCUMULATION
(define-fun |accumulator_n o_ACCUMULATION| ((state |accumulator_s|)) (_ BitVec 8) (|accumulator#1| state))
; yosys-smt2-input i_SUMMAND 8
; yosys-smt2-wire i_SUMMAND 8
(declare-fun |accumulator#2| (|accumulator_s|) (_ BitVec 8)) ; \i_SUMMAND
(define-fun |accumulator_n i_SUMMAND| ((state |accumulator_s|)) (_ BitVec 8) (|accumulator#2| state))
; yosys-smt2-input i_RESET 1
; yosys-smt2-wire i_RESET 1
(declare-fun |accumulator#3| (|accumulator_s|) Bool) ; \i_RESET
(define-fun |accumulator_n i_RESET| ((state |accumulator_s|)) Bool (|accumulator#3| state))
; yosys-smt2-input i_CLK_EN 1
; yosys-smt2-wire i_CLK_EN 1
(declare-fun |accumulator#4| (|accumulator_s|) Bool) ; \i_CLK_EN
(define-fun |accumulator_n i_CLK_EN| ((state |accumulator_s|)) Bool (|accumulator#4| state))
; yosys-smt2-input i_CLK 1
; yosys-smt2-wire i_CLK 1
(declare-fun |accumulator#5| (|accumulator_s|) Bool) ; \i_CLK
(define-fun |accumulator_n i_CLK| ((state |accumulator_s|)) Bool (|accumulator#5| state))
; yosys-smt2-register $past$./accumulator.v:56$6$0 8
(declare-fun |accumulator#6| (|accumulator_s|) (_ BitVec 8)) ; $past$./accumulator.v:56$6$0
(define-fun |accumulator_n $past$./accumulator.v:56$6$0| ((state |accumulator_s|)) (_ BitVec 8) (|accumulator#6| state))
; yosys-smt2-register $past$./accumulator.v:56$5$0 8
(declare-fun |accumulator#7| (|accumulator_s|) (_ BitVec 8)) ; $past$./accumulator.v:56$5$0
(define-fun |accumulator_n $past$./accumulator.v:56$5$0| ((state |accumulator_s|)) (_ BitVec 8) (|accumulator#7| state))
; yosys-smt2-register $formal$./accumulator.v:58$17_EN 1
(declare-fun |accumulator#8| (|accumulator_s|) (_ BitVec 1)) ; $formal$./accumulator.v:58$17_EN
(define-fun |accumulator_n $formal$./accumulator.v:58$17_EN| ((state |accumulator_s|)) Bool (= ((_ extract 0 0) (|accumulator#8| state)) #b1))
; yosys-smt2-register $formal$./accumulator.v:58$17_CHECK 1
(declare-fun |accumulator#9| (|accumulator_s|) (_ BitVec 1)) ; $formal$./accumulator.v:58$17_CHECK
(define-fun |accumulator_n $formal$./accumulator.v:58$17_CHECK| ((state |accumulator_s|)) Bool (= ((_ extract 0 0) (|accumulator#9| state)) #b1))
; yosys-smt2-register $formal$./accumulator.v:56$16_EN 1
(declare-fun |accumulator#10| (|accumulator_s|) (_ BitVec 1)) ; $formal$./accumulator.v:56$16_EN
(define-fun |accumulator_n $formal$./accumulator.v:56$16_EN| ((state |accumulator_s|)) Bool (= ((_ extract 0 0) (|accumulator#10| state)) #b1))
; yosys-smt2-register $formal$./accumulator.v:56$16_CHECK 1
(declare-fun |accumulator#11| (|accumulator_s|) (_ BitVec 1)) ; $formal$./accumulator.v:56$16_CHECK
(define-fun |accumulator_n $formal$./accumulator.v:56$16_CHECK| ((state |accumulator_s|)) Bool (= ((_ extract 0 0) (|accumulator#11| state)) #b1))
; yosys-smt2-register $formal$./accumulator.v:54$15_EN 1
(declare-fun |accumulator#12| (|accumulator_s|) (_ BitVec 1)) ; $formal$./accumulator.v:54$15_EN
(define-fun |accumulator_n $formal$./accumulator.v:54$15_EN| ((state |accumulator_s|)) Bool (= ((_ extract 0 0) (|accumulator#12| state)) #b1))
; yosys-smt2-register $formal$./accumulator.v:54$15_CHECK 1
(declare-fun |accumulator#13| (|accumulator_s|) (_ BitVec 1)) ; $formal$./accumulator.v:54$15_CHECK
(define-fun |accumulator_n $formal$./accumulator.v:54$15_CHECK| ((state |accumulator_s|)) Bool (= ((_ extract 0 0) (|accumulator#13| state)) #b1))
; yosys-smt2-register $eq$./accumulator.v:55$66_Y 1
(declare-fun |accumulator#14| (|accumulator_s|) (_ BitVec 1)) ; $eq$./accumulator.v:55$66_Y
(define-fun |accumulator_n $eq$./accumulator.v:55$66_Y| ((state |accumulator_s|)) Bool (= ((_ extract 0 0) (|accumulator#14| state)) #b1))
; yosys-smt2-register $eq$./accumulator.v:53$64_Y 1
(declare-fun |accumulator#15| (|accumulator_s|) (_ BitVec 1)) ; $eq$./accumulator.v:53$64_Y
(define-fun |accumulator_n $eq$./accumulator.v:53$64_Y| ((state |accumulator_s|)) Bool (= ((_ extract 0 0) (|accumulator#15| state)) #b1))
; yosys-smt2-register $and$./accumulator.v:49$57_Y 1
(declare-fun |accumulator#16| (|accumulator_s|) (_ BitVec 1)) ; $and$./accumulator.v:49$57_Y
(define-fun |accumulator_n $and$./accumulator.v:49$57_Y| ((state |accumulator_s|)) Bool (= ((_ extract 0 0) (|accumulator#16| state)) #b1))
(define-fun |accumulator#17| ((state |accumulator_s|)) Bool (= (|accumulator#6| state) (|accumulator#2| state))) ; $eq$./accumulator.v:64$77_Y
; yosys-smt2-anyseq accumulator#18 1 $auto$setundef.cc:524:execute$227
(declare-fun |accumulator#18| (|accumulator_s|) (_ BitVec 1)) ; $auto$rtlil.cc:2358:Anyseq$228
(define-fun |accumulator#19| ((state |accumulator_s|)) Bool (not (or  (= ((_ extract 0 0) (|accumulator#16| state)) #b1) false false false false false false false false false false false false false false false false false false false false false false false false false false false false false false false))) ; $logic_not$./accumulator.v:49$58_Y
(define-fun |accumulator#20| ((state |accumulator_s|)) Bool (and (or  (|accumulator#19| state) false) (or  (|accumulator#5| state) false false false false false false false false false false false false false false false false false false false false false false false false false false false false false false false))) ; $logic_and$./accumulator.v:49$60_Y
(define-fun |accumulator#21| ((state |accumulator_s|)) (_ BitVec 1) (ite (|accumulator#20| state) (|accumulator#18| state) (ite (|accumulator#17| state) #b1 #b0))) ; $0$formal$./accumulator.v:64$20_CHECK[0:0]$53
(define-fun |accumulator#22| ((state |accumulator_s|)) (_ BitVec 1) (ite (|accumulator#20| state) #b0 #b1)) ; $0$formal$./accumulator.v:62$18_EN[0:0]$50
; yosys-smt2-assume 0 ./accumulator.v:64
(define-fun |accumulator_u 0| ((state |accumulator_s|)) Bool (or (= ((_ extract 0 0) (|accumulator#21| state)) #b1) (not (= ((_ extract 0 0) (|accumulator#22| state)) #b1)))) ; $assume$./accumulator.v:64$86
(define-fun |accumulator#23| ((state |accumulator_s|)) Bool (= (|accumulator#15| state) (ite (|accumulator#3| state) #b1 #b0))) ; $eq$./accumulator.v:63$76_Y
; yosys-smt2-anyseq accumulator#24 1 $auto$setundef.cc:524:execute$225
(declare-fun |accumulator#24| (|accumulator_s|) (_ BitVec 1)) ; $auto$rtlil.cc:2358:Anyseq$226
(define-fun |accumulator#25| ((state |accumulator_s|)) (_ BitVec 1) (ite (|accumulator#20| state) (|accumulator#24| state) (ite (|accumulator#23| state) #b1 #b0))) ; $0$formal$./accumulator.v:63$19_CHECK[0:0]$51
; yosys-smt2-assume 1 ./accumulator.v:63
(define-fun |accumulator_u 1| ((state |accumulator_s|)) Bool (or (= ((_ extract 0 0) (|accumulator#25| state)) #b1) (not (= ((_ extract 0 0) (|accumulator#22| state)) #b1)))) ; $assume$./accumulator.v:63$85
(define-fun |accumulator#26| ((state |accumulator_s|)) Bool (= (|accumulator#14| state) (ite (|accumulator#4| state) #b1 #b0))) ; $eq$./accumulator.v:62$75_Y
; yosys-smt2-anyseq accumulator#27 1 $auto$setundef.cc:524:execute$223
(declare-fun |accumulator#27| (|accumulator_s|) (_ BitVec 1)) ; $auto$rtlil.cc:2358:Anyseq$224
(define-fun |accumulator#28| ((state |accumulator_s|)) (_ BitVec 1) (ite (|accumulator#20| state) (|accumulator#27| state) (ite (|accumulator#26| state) #b1 #b0))) ; $0$formal$./accumulator.v:62$18_CHECK[0:0]$49
; yosys-smt2-assume 2 ./accumulator.v:62
(define-fun |accumulator_u 2| ((state |accumulator_s|)) Bool (or (= ((_ extract 0 0) (|accumulator#28| state)) #b1) (not (= ((_ extract 0 0) (|accumulator#22| state)) #b1)))) ; $assume$./accumulator.v:62$84
(define-fun |accumulator#29| ((state |accumulator_s|)) Bool (distinct (|accumulator#16| state) (ite (|accumulator#5| state) #b1 #b0))) ; $0$formal$./accumulator.v:47$12_CHECK[0:0]$37
; yosys-smt2-assume 3 ./accumulator.v:47
(define-fun |accumulator_u 3| ((state |accumulator_s|)) Bool (or (|accumulator#29| state) (not true))) ; $assume$./accumulator.v:47$78
; yosys-smt2-assert 0 ./accumulator.v:58
(define-fun |accumulator_a 0| ((state |accumulator_s|)) Bool (or (= ((_ extract 0 0) (|accumulator#9| state)) #b1) (not (= ((_ extract 0 0) (|accumulator#8| state)) #b1)))) ; $assert$./accumulator.v:58$83
; yosys-smt2-assert 1 ./accumulator.v:56
(define-fun |accumulator_a 1| ((state |accumulator_s|)) Bool (or (= ((_ extract 0 0) (|accumulator#11| state)) #b1) (not (= ((_ extract 0 0) (|accumulator#10| state)) #b1)))) ; $assert$./accumulator.v:56$82
; yosys-smt2-assert 2 ./accumulator.v:54
(define-fun |accumulator_a 2| ((state |accumulator_s|)) Bool (or (= ((_ extract 0 0) (|accumulator#13| state)) #b1) (not (= ((_ extract 0 0) (|accumulator#12| state)) #b1)))) ; $assert$./accumulator.v:54$81
; yosys-smt2-anyseq accumulator#30 1 $auto$setundef.cc:524:execute$209
(declare-fun |accumulator#30| (|accumulator_s|) (_ BitVec 1)) ; $auto$rtlil.cc:2358:Anyseq$210
; yosys-smt2-anyseq accumulator#31 1 $auto$setundef.cc:524:execute$207
(declare-fun |accumulator#31| (|accumulator_s|) (_ BitVec 1)) ; $auto$rtlil.cc:2358:Anyseq$208
(define-fun |accumulator#32| ((state |accumulator_s|)) Bool (not (or  (= ((_ extract 0 0) (|accumulator#1| state)) #b1) (= ((_ extract 1 1) (|accumulator#1| state)) #b1) (= ((_ extract 2 2) (|accumulator#1| state)) #b1) (= ((_ extract 3 3) (|accumulator#1| state)) #b1) (= ((_ extract 4 4) (|accumulator#1| state)) #b1) (= ((_ extract 5 5) (|accumulator#1| state)) #b1) (= ((_ extract 6 6) (|accumulator#1| state)) #b1) (= ((_ extract 7 7) (|accumulator#1| state)) #b1)))) ; $eq$./accumulator.v:54$65_Y
(define-fun |accumulator#33| ((state |accumulator_s|)) (_ BitVec 1) (ite (= ((_ extract 0 0) (|accumulator#15| state)) #b1) (ite (|accumulator#32| state) #b1 #b0) (|accumulator#31| state))) ; $procmux$120_Y
(define-fun |accumulator#34| ((state |accumulator_s|)) Bool (and (or  (= ((_ extract 0 0) (|accumulator#0| state)) #b1) false) (or  (|accumulator#20| state) false))) ; $logic_and$./accumulator.v:49$61_Y
(define-fun |accumulator#35| ((state |accumulator_s|)) (_ BitVec 1) (ite (|accumulator#34| state) (|accumulator#33| state) (|accumulator#30| state))) ; $0$formal$./accumulator.v:54$15_CHECK[0:0]$43
(define-fun |accumulator#36| ((state |accumulator_s|)) (_ BitVec 1) (ite (= ((_ extract 0 0) (|accumulator#15| state)) #b1) #b1 #b0)) ; $procmux$115_Y
(define-fun |accumulator#37| ((state |accumulator_s|)) (_ BitVec 1) (ite (|accumulator#34| state) (|accumulator#36| state) #b0)) ; $0$formal$./accumulator.v:54$15_EN[0:0]$44
; yosys-smt2-anyseq accumulator#38 1 $auto$setundef.cc:524:execute$215
(declare-fun |accumulator#38| (|accumulator_s|) (_ BitVec 1)) ; $auto$rtlil.cc:2358:Anyseq$216
; yosys-smt2-anyseq accumulator#39 1 $auto$setundef.cc:524:execute$211
(declare-fun |accumulator#39| (|accumulator_s|) (_ BitVec 1)) ; $auto$rtlil.cc:2358:Anyseq$212
(define-fun |accumulator#40| ((state |accumulator_s|)) (_ BitVec 8) (bvadd (|accumulator#7| state) (|accumulator#6| state))) ; $add$./accumulator.v:56$67_Y
(define-fun |accumulator#41| ((state |accumulator_s|)) Bool (= (|accumulator#1| state) (|accumulator#40| state))) ; $eq$./accumulator.v:56$68_Y
(define-fun |accumulator#42| ((state |accumulator_s|)) (_ BitVec 1) (ite (= ((_ extract 0 0) (|accumulator#14| state)) #b1) (ite (|accumulator#41| state) #b1 #b0) (|accumulator#39| state))) ; $procmux$133_Y
; yosys-smt2-anyseq accumulator#43 1 $auto$setundef.cc:524:execute$213
(declare-fun |accumulator#43| (|accumulator_s|) (_ BitVec 1)) ; $auto$rtlil.cc:2358:Anyseq$214
(define-fun |accumulator#44| ((state |accumulator_s|)) (_ BitVec 1) (ite (= ((_ extract 0 0) (|accumulator#15| state)) #b1) (|accumulator#43| state) (|accumulator#42| state))) ; $procmux$136_Y
(define-fun |accumulator#45| ((state |accumulator_s|)) (_ BitVec 1) (ite (|accumulator#34| state) (|accumulator#44| state) (|accumulator#38| state))) ; $0$formal$./accumulator.v:56$16_CHECK[0:0]$45
(define-fun |accumulator#46| ((state |accumulator_s|)) (_ BitVec 1) (ite (= ((_ extract 0 0) (|accumulator#14| state)) #b1) #b1 #b0)) ; $procmux$125_Y
(define-fun |accumulator#47| ((state |accumulator_s|)) (_ BitVec 1) (ite (= ((_ extract 0 0) (|accumulator#15| state)) #b1) #b0 (|accumulator#46| state))) ; $procmux$128_Y
(define-fun |accumulator#48| ((state |accumulator_s|)) (_ BitVec 1) (ite (|accumulator#34| state) (|accumulator#47| state) #b0)) ; $0$formal$./accumulator.v:56$16_EN[0:0]$46
; yosys-smt2-anyseq accumulator#49 1 $auto$setundef.cc:524:execute$221
(declare-fun |accumulator#49| (|accumulator_s|) (_ BitVec 1)) ; $auto$rtlil.cc:2358:Anyseq$222
(define-fun |accumulator#50| ((state |accumulator_s|)) Bool (= (|accumulator#7| state) (|accumulator#1| state))) ; $eq$./accumulator.v:58$69_Y
; yosys-smt2-anyseq accumulator#51 1 $auto$setundef.cc:524:execute$217
(declare-fun |accumulator#51| (|accumulator_s|) (_ BitVec 1)) ; $auto$rtlil.cc:2358:Anyseq$218
(define-fun |accumulator#52| ((state |accumulator_s|)) (_ BitVec 1) (ite (= ((_ extract 0 0) (|accumulator#14| state)) #b1) (|accumulator#51| state) (ite (|accumulator#50| state) #b1 #b0))) ; $procmux$149_Y
; yosys-smt2-anyseq accumulator#53 1 $auto$setundef.cc:524:execute$219
(declare-fun |accumulator#53| (|accumulator_s|) (_ BitVec 1)) ; $auto$rtlil.cc:2358:Anyseq$220
(define-fun |accumulator#54| ((state |accumulator_s|)) (_ BitVec 1) (ite (= ((_ extract 0 0) (|accumulator#15| state)) #b1) (|accumulator#53| state) (|accumulator#52| state))) ; $procmux$152_Y
(define-fun |accumulator#55| ((state |accumulator_s|)) (_ BitVec 1) (ite (|accumulator#34| state) (|accumulator#54| state) (|accumulator#49| state))) ; $0$formal$./accumulator.v:58$17_CHECK[0:0]$47
(define-fun |accumulator#56| ((state |accumulator_s|)) (_ BitVec 1) (ite (= ((_ extract 0 0) (|accumulator#14| state)) #b1) #b0 #b1)) ; $procmux$141_Y
(define-fun |accumulator#57| ((state |accumulator_s|)) (_ BitVec 1) (ite (= ((_ extract 0 0) (|accumulator#15| state)) #b1) #b0 (|accumulator#56| state))) ; $procmux$144_Y
(define-fun |accumulator#58| ((state |accumulator_s|)) (_ BitVec 1) (ite (|accumulator#34| state) (|accumulator#57| state) #b0)) ; $0$formal$./accumulator.v:58$17_EN[0:0]$48
(define-fun |accumulator#59| ((state |accumulator_s|)) (_ BitVec 8) (bvadd (|accumulator#1| state) (|accumulator#2| state))) ; $add$./accumulator.v:38$24_Y
(define-fun |accumulator#60| ((state |accumulator_s|)) (_ BitVec 8) (ite (|accumulator#4| state) (|accumulator#59| state) (|accumulator#1| state))) ; $procmux$169_Y
(define-fun |accumulator#61| ((state |accumulator_s|)) (_ BitVec 8) (ite (|accumulator#3| state) #b00000000 (|accumulator#60| state))) ; $0\o_ACCUMULATION[7:0]
(define-fun |accumulator_a| ((state |accumulator_s|)) Bool (and
  (|accumulator_a 0| state)
  (|accumulator_a 1| state)
  (|accumulator_a 2| state)
))
(define-fun |accumulator_u| ((state |accumulator_s|)) Bool (and
  (|accumulator_u 0| state)
  (|accumulator_u 1| state)
  (|accumulator_u 2| state)
  (|accumulator_u 3| state)
))
(define-fun |accumulator_i| ((state |accumulator_s|)) Bool (and
  (= (= ((_ extract 0 0) (|accumulator#0| state)) #b1) false) ; r_PAST_VALID
  (= (= ((_ extract 0 0) (|accumulator#8| state)) #b1) false) ; $formal$./accumulator.v:58$17_EN
  (= (= ((_ extract 0 0) (|accumulator#10| state)) #b1) false) ; $formal$./accumulator.v:56$16_EN
  (= (= ((_ extract 0 0) (|accumulator#12| state)) #b1) false) ; $formal$./accumulator.v:54$15_EN
))
(define-fun |accumulator_h| ((state |accumulator_s|)) Bool true)
(define-fun |accumulator_t| ((state |accumulator_s|) (next_state |accumulator_s|)) Bool (and
  (= (ite (|accumulator#5| state) #b1 #b0) (|accumulator#16| next_state)) ; $procdff$175 $and$./accumulator.v:49$57_Y
  (= (ite (|accumulator#3| state) #b1 #b0) (|accumulator#15| next_state)) ; $procdff$177 $eq$./accumulator.v:53$64_Y
  (= (ite (|accumulator#4| state) #b1 #b0) (|accumulator#14| next_state)) ; $procdff$178 $eq$./accumulator.v:55$66_Y
  (= (|accumulator#35| state) (|accumulator#13| next_state)) ; $procdff$192 $formal$./accumulator.v:54$15_CHECK
  (= (|accumulator#37| state) (|accumulator#12| next_state)) ; $procdff$193 $formal$./accumulator.v:54$15_EN
  (= (|accumulator#45| state) (|accumulator#11| next_state)) ; $procdff$194 $formal$./accumulator.v:56$16_CHECK
  (= (|accumulator#48| state) (|accumulator#10| next_state)) ; $procdff$195 $formal$./accumulator.v:56$16_EN
  (= (|accumulator#55| state) (|accumulator#9| next_state)) ; $procdff$196 $formal$./accumulator.v:58$17_CHECK
  (= (|accumulator#58| state) (|accumulator#8| next_state)) ; $procdff$197 $formal$./accumulator.v:58$17_EN
  (= (|accumulator#1| state) (|accumulator#7| next_state)) ; $procdff$179 $past$./accumulator.v:56$5$0
  (= (|accumulator#2| state) (|accumulator#6| next_state)) ; $procdff$180 $past$./accumulator.v:56$6$0
  (= (|accumulator#61| state) (|accumulator#1| next_state)) ; $procdff$204 \o_ACCUMULATION
  (= #b1 (|accumulator#0| next_state)) ; $procdff$174 \r_PAST_VALID
)) ; end of module accumulator
; yosys-smt2-topmod accumulator
; end of yosys output
